src/fuel/fuel_planner/utils/lkh_tsp_solver/resource/single.tsp
NAME : single
TYPE : ATSP
DIMENSION : 28
EDGE_WEIGHT_TYPE : EXPLICIT
EDGE_WEIGHT_FORMAT : FULL_MATRIX
EDGE_WEIGHT_SECTION
0 50175 50151 50158 50144 50135 50133 50184 50242 50277 50272 50315 50271 50302 50372 50395 50384 50378 50394 1441 1446 1243 50391 50285 483 234 192 332 
0 0 152 112 366 481 50000 50000 50000 50000 50000 50000 50000 50000 50000 50000 50000 50000 50000 50000 50000 50000 50000 50000 50000 50000 50000 50000 
0 152 0 59 137 266 263 50000 50000 50000 50000 50000 50000 50000 50000 50000 50000 50000 50000 50000 50000 50000 50000 50000 50000 50000 50000 50000 
0 112 59 0 145 343 50000 50000 50000 50000 50000 50000 50000 50000 50000 50000 50000 50000 50000 50000 50000 50000 50000 50000 50000 50000 50000 50000 
0 366 137 145 0 122 113 541 804 1047 1058 1449 938 50000 50000 50000 50000 50000 50000 50000 50000 50000 50000 1098 50000 50000 50000 50000 
0 481 266 343 122 0 71 433 696 952 945 1311 830 50000 50000 50000 50000 50000 50000 50000 50000 50000 50000 993 50000 50000 50000 50000 
0 50000 263 50000 113 71 0 448 719 949 945 1306 862 50000 50000 50000 50000 50000 50000 50000 50000 50000 50000 987 50000 50000 50000 50000 
0 50000 50000 50000 541 433 448 0 262 397 392 602 406 50000 50000 50000 50000 50000 50000 50000 50000 50000 50000 436 50000 50000 50000 50000 
0 50000 50000 50000 804 696 719 262 0 182 341 336 308 50000 50000 50000 50000 50000 50000 50000 50000 50000 50000 235 50000 50000 50000 50000 
0 50000 50000 50000 1047 952 949 397 182 0 255 166 393 50000 50000 50000 50000 50000 50000 50000 50000 50000 50000 61 50000 50000 50000 50000 
0 50000 50000 50000 1058 945 945 392 341 255 0 388 280 50000 50000 50000 50000 50000 50000 50000 50000 50000 50000 269 50000 50000 50000 50000 
0 50000 50000 50000 1449 1311 1306 602 336 166 388 0 402 50000 50000 50000 50000 50000 50000 50000 50000 50000 50000 119 50000 50000 50000 50000 
0 50000 50000 50000 938 830 862 406 308 393 280 402 0 195 502 675 584 583 685 1221 1184 1144 659 50000 50000 50000 50000 50000 
0 50000 50000 50000 50000 50000 50000 50000 50000 50000 50000 50000 195 0 319 497 395 388 505 1053 1018 985 479 50000 50000 50000 50000 50000 
0 50000 50000 50000 50000 50000 50000 50000 50000 50000 50000 50000 502 319 0 253 163 172 284 710 676 675 246 50000 50000 50000 50000 50000 
0 50000 50000 50000 50000 50000 50000 50000 50000 50000 50000 50000 675 497 253 0 90 224 55 419 390 452 227 50000 50000 50000 50000 50000 
0 50000 50000 50000 50000 50000 50000 50000 50000 50000 50000 50000 584 395 163 90 0 148 101 506 466 520 152 50000 50000 50000 50000 50000 
0 50000 50000 50000 50000 50000 50000 50000 50000 50000 50000 50000 583 388 172 224 148 0 169 541 499 533 70 50000 50000 50000 50000 50000 
0 50000 50000 50000 50000 50000 50000 50000 50000 50000 50000 50000 685 505 284 55 101 169 0 423 394 437 172 50000 50000 50000 50000 50000 
0 50000 50000 50000 50000 50000 50000 50000 50000 50000 50000 50000 1221 1053 710 419 506 541 423 0 64 323 417 50000 50000 1180 50000 50000 
0 50000 50000 50000 50000 50000 50000 50000 50000 50000 50000 50000 1184 1018 676 390 466 499 394 64 0 259 386 50000 50000 50000 50000 50000 
0 50000 50000 50000 50000 50000 50000 50000 50000 50000 50000 50000 1144 985 675 452 520 533 437 323 259 0 420 50000 50000 955 50000 50000 
0 50000 50000 50000 50000 50000 50000 50000 50000 50000 50000 50000 659 479 246 227 152 70 172 417 386 420 0 50000 50000 50000 50000 50000 
0 50000 50000 50000 1098 993 987 436 235 61 269 119 50000 50000 50000 50000 50000 50000 50000 50000 50000 50000 50000 0 50000 50000 50000 50000 
0 50000 50000 50000 50000 50000 50000 50000 50000 50000 50000 50000 50000 50000 50000 50000 50000 50000 50000 50000 50000 50000 50000 50000 0 309 213 338 
0 50000 50000 50000 50000 50000 50000 50000 50000 50000 50000 50000 50000 50000 50000 50000 50000 50000 50000 1180 50000 955 50000 50000 309 0 135 221 
0 50000 50000 50000 50000 50000 50000 50000 50000 50000 50000 50000 50000 50000 50000 50000 50000 50000 50000 50000 50000 50000 50000 50000 213 135 0 292 
0 50000 50000 50000 50000 50000 50000 50000 50000 50000 50000 50000 50000 50000 50000 50000 50000 50000 50000 50000 50000 50000 50000 50000 338 221 292 0 
EOF