src/fuel/fuel_planner/utils/lkh_tsp_solver/resource/single.txt
NAME : single.5921.tour
COMMENT : Length = 5921
COMMENT : Found by LKH [Keld Helsgaun] Wed Jun 25 20:08:09 2025
TYPE : TOUR
DIMENSION : 28
TOUR_SECTION
1
27
25
28
26
22
21
20
19
16
17
23
18
15
14
13
11
24
12
10
9
8
6
7
5
3
4
2
-1
EOF
